




for now dummy data:

created from signup
  uni ==> dummyunicreatedviasignup, dummyunicreatedviasignup01


dummyunicreatedviasignup zz
  labs==> 60b45132279450165caf4234 ,
  stu ==> dummyunicreatedviasignupzstud
  tch ==> dummyunicreatedviasignupztchr










Users created for 100% demo.

Universities:

COMSATS University Islamabad
Fast NUCES Lahore








































































remeber these during the demo:::

1. While attempting challenges, LAST challenge ka timeout ni karwana...errors hain wahan.
2. DONOT open new tab during challnege attempt, only open GBCL links like dashboard, rival activity..
3.

